127 133915
1 16 30 34 39 26 29 32 28 122 33 25 38 42 43 40 44 45 103 93 95 123 97 98 127 107 111 112 94 46 49 48 118 53 47 54 57 121 51 2 35 37 36 41 14 12 27 31 79 80 78 117 84 81 75 69 109 96 119 63 102 101 83 82 126 76 67 59 125 89 92 99 104 85 86 87 88 110 71 70 68 73 74 77 18 72 8 23 19 22 21 17 24 6 106 15 108 20 4 9 11 114 105 7 120 13 115 10 3 90 116 60 62 61 91 58 100 64 113 65 66 55 124 52 56 5 50 
